1555060
0 53 18207
53 12 13535
12 46 9113
46 19 12842
19 3 4440
3 47 7247
47 1 7938
1 64 19463
64 44 16725
44 26 8214
26 16 1444
16 8 5356
8 57 1776
57 14 6903
14 7 6874
7 67 34470
67 34 19070
34 50 8926
50 38 11004
38 61 8740
61 36 30445
36 52 6554
52 43 84806
43 13 62419
13 9 62052
9 17 28651
17 56 27906
56 32 88918
32 51 101508
51 21 46274
21 30 39447
30 27 65445
27 49 10810
49 35 24707
35 58 8563
58 15 10879
15 62 14688
62 23 26977
23 60 5436
60 2 12946
2 20 17216
20 37 42597
37 66 15199
66 6 19183
6 42 52949
42 45 69393
45 33 36286
33 54 20834
54 25 61621
25 65 57990
65 10 13370
10 63 35955
63 5 32038
5 40 10602
40 29 5056
29 24 1248
24 28 9940
28 59 6419
59 22 7498
22 48 4353
48 18 8894
18 4 15573
4 39 3130
39 55 3489
55 31 1426
31 41 5759
41 11 4830
11 0 10465
